NAME 
ROWS
 N  OBJ
 L  R0      
 E  R1      
 E  R2      
 E  R3      
 E  R4      
 E  R5      
 E  R6      
 E  R7      
 E  R8      
 E  R9      
 E  R10     
 E  R11     
 E  R12     
 E  R13     
 E  R14     
 E  R15     
 E  R16     
 E  R17     
 E  R18     
 E  R19     
 E  R20     
 E  R21     
 E  R22     
 E  R23     
 E  R24     
 E  R25     
 E  R26     
 E  R27     
 E  R28     
 E  R29     
 E  R30     
COLUMNS
    MARKER    'MARKER'                 'INTORG'
    I0(3)     OBJ       155
    I0(3)     R0        117
    I0(3)     R1        10
    I0(3)     R30       1
    I1(3)     OBJ       71
    I1(3)     R0        139
    I1(3)     R2        14
    I1(3)     R30       1
    I2(3)     OBJ       23
    I2(3)     R0        166
    I2(3)     R3        18
    I2(3)     R30       1
    I3(2)     OBJ       18
    I3(2)     R0        88
    I3(2)     R30       1
    I4(3)     OBJ       193
    I4(3)     R0        66
    I4(3)     R5        7
    I4(3)     R30       1
    I5(3)     OBJ       131
    I5(3)     R0        62
    I5(3)     R6        19
    I5(3)     R30       1
    I6(3)     OBJ       78
    I6(3)     R0        131
    I6(3)     R7        15
    I6(3)     R30       1
    I7(3)     OBJ       -129
    I7(3)     R0        74
    I7(3)     R8        15
    I7(3)     R30       1
    I8(3)     OBJ       -38
    I8(3)     R0        59
    I8(3)     R9        8
    I8(3)     R30       1
    I9(3)     OBJ       -82
    I9(3)     R0        48
    I9(3)     R10       11
    I9(3)     R30       1
    I10(3)    OBJ       -160
    I10(3)    R0        -157
    I10(3)    R11       8
    I10(3)    R30       1
    I11(3)    OBJ       82
    I11(3)    R0        -56
    I11(3)    R12       6
    I11(3)    R30       1
    I12(3)    OBJ       51
    I12(3)    R0        74
    I12(3)    R13       13
    I12(3)    R30       1
    I13(3)    OBJ       72
    I13(3)    R0        -121
    I13(3)    R14       11
    I13(3)    R30       1
    I14(3)    OBJ       53
    I14(3)    R0        -13
    I14(3)    R15       16
    I14(3)    R30       1
    I15(3)    OBJ       30
    I15(3)    R0        -125
    I15(3)    R16       1
    I15(3)    R30       1
    I16(3)    OBJ       30
    I16(3)    R0        -82
    I16(3)    R17       8
    I16(3)    R30       1
    I17(2)    OBJ       -10
    I17(2)    R0        -194
    I17(2)    R30       1
    I18(3)    OBJ       -56
    I18(3)    R0        -9
    I18(3)    R19       7
    I18(3)    R30       1
    I19(3)    OBJ       -95
    I19(3)    R0        134
    I19(3)    R20       -1
    I19(3)    R30       1
    I20(3)    OBJ       157
    I20(3)    R0        80
    I20(3)    R21       10
    I20(3)    R30       1
    I21(3)    OBJ       63
    I21(3)    R0        149
    I21(3)    R22       13
    I21(3)    R30       1
    I22(3)    OBJ       55
    I22(3)    R0        89
    I22(3)    R23       2
    I22(3)    R30       1
    I23(2)    OBJ       -194
    I23(2)    R0        -158
    I23(2)    R30       1
    I24(3)    OBJ       82
    I24(3)    R0        150
    I24(3)    R25       12
    I24(3)    R30       1
    I25(3)    OBJ       -59
    I25(3)    R0        -197
    I25(3)    R26       16
    I25(3)    R30       1
    I26(2)    OBJ       -175
    I26(2)    R0        -130
    I26(2)    R30       1
    I27(3)    OBJ       187
    I27(3)    R0        -20
    I27(3)    R28       18
    I27(3)    R30       1
    MARKER    'MARKER'                 'INTEND'
    C28(30)   R0        4
    C28(30)   R1        7
    C28(30)   R2        17
    C28(30)   R3        9
    C28(30)   R4        17
    C28(30)   R5        17
    C28(30)   R6        3
    C28(30)   R7        18
    C28(30)   R8        9
    C28(30)   R9        19
    C28(30)   R10       13
    C28(30)   R11       5
    C28(30)   R12       8
    C28(30)   R13       14
    C28(30)   R14       9
    C28(30)   R15       11
    C28(30)   R16       4
    C28(30)   R17       1
    C28(30)   R18       16
    C28(30)   R19       10
    C28(30)   R20       4
    C28(30)   R21       17
    C28(30)   R22       19
    C28(30)   R23       10
    C28(30)   R24       1
    C28(30)   R25       19
    C28(30)   R26       12
    C28(30)   R27       8
    C28(30)   R28       3
    C28(30)   R29       11
    C29(30)   OBJ       1
    C29(30)   R0        -6
    C29(30)   R1        5
    C29(30)   R2        13
    C29(30)   R3        9
    C29(30)   R4        16
    C29(30)   R5        9
    C29(30)   R6        7
    C29(30)   R7        19
    C29(30)   R8        5
    C29(30)   R9        -1
    C29(30)   R10       16
    C29(30)   R11       9
    C29(30)   R12       8
    C29(30)   R13       17
    C29(30)   R14       17
    C29(30)   R15       4
    C29(30)   R16       8
    C29(30)   R17       14
    C29(30)   R18       15
    C29(30)   R19       4
    C29(30)   R20       3
    C29(30)   R21       8
    C29(30)   R22       4
    C29(30)   R23       8
    C29(30)   R24       18
    C29(30)   R25       19
    C29(30)   R26       10
    C29(30)   R27       17
    C29(30)   R28       19
    C29(30)   R29       3
    C30(1)    R1        1
    C31(1)    R2        1
    C32(1)    R3        1
    C33(1)    R4        1
    C34(1)    R5        1
    C35(1)    R6        1
    C36(1)    R7        1
    C37(1)    R8        1
    C38(1)    R9        1
    C39(1)    R10       1
    C40(1)    R11       1
    C41(1)    R12       1
    C42(1)    R13       1
    C43(1)    R14       1
    C44(1)    R15       1
    C45(1)    R16       1
    C46(1)    R17       1
    C47(1)    R18       1
    C48(1)    R19       1
    C49(1)    R20       1
    C50(1)    R21       1
    C51(1)    R22       1
    C52(1)    R23       1
    C53(1)    R24       1
    C54(1)    R25       1
    C55(1)    R26       1
    C56(1)    R27       1
    C57(1)    R28       1
    C58(1)    R29       1
    C59(1)    R30       1
RHS
    RHS1      R0        -336
    RHS1      R1        91
    RHS1      R2        60
    RHS1      R3        82
    RHS1      R4        81
    RHS1      R5        97
    RHS1      R6        71
    RHS1      R7        81
    RHS1      R8        97
    RHS1      R9        92
    RHS1      R10       86
    RHS1      R11       53
    RHS1      R12       62
    RHS1      R13       92
    RHS1      R14       52
    RHS1      R15       89
    RHS1      R16       82
    RHS1      R17       93
    RHS1      R18       72
    RHS1      R19       65
    RHS1      R20       57
    RHS1      R21       61
    RHS1      R22       71
    RHS1      R23       77
    RHS1      R24       57
    RHS1      R25       73
    RHS1      R26       87
    RHS1      R27       83
    RHS1      R28       56
    RHS1      R29       62
    RHS1      R30       9
BOUNDS
 UP BND1      I0(3)     1
 UP BND1      I1(3)     1
 UP BND1      I2(3)     1
 UP BND1      I3(2)     1
 UP BND1      I4(3)     1
 UP BND1      I5(3)     1
 UP BND1      I6(3)     1
 UP BND1      I7(3)     1
 UP BND1      I8(3)     1
 UP BND1      I9(3)     1
 UP BND1      I10(3)    1
 UP BND1      I11(3)    1
 UP BND1      I12(3)    1
 UP BND1      I13(3)    1
 UP BND1      I14(3)    1
 UP BND1      I15(3)    1
 UP BND1      I16(3)    1
 UP BND1      I17(2)    1
 UP BND1      I18(3)    1
 UP BND1      I19(3)    1
 UP BND1      I20(3)    1
 UP BND1      I21(3)    1
 UP BND1      I22(3)    1
 UP BND1      I23(2)    1
 UP BND1      I24(3)    1
 UP BND1      I25(3)    1
 UP BND1      I26(2)    1
 UP BND1      I27(3)    1
ENDATA
